NAME : morphed18-5-23
COMMENT : Generated using the function morphInstances from the R-package netgen (Bossek,2015) - Number of clusters: 5 Alpha: 0.5
TYPE : TSP
DIMENSION : 18
EDGE_WEIGHT_TYPE : EUC_2D
NODE_COORD_SECTION
1 55.6264862653 92.8382005183
2 19.2322595415 41.4904575714
3 38.6974936559 74.1795362477
4 72.0685231915 34.5587401451
5 57.2406068215 9.783401881
6 45.0272747646 84.2206250164
7 86.7538641381 40.4460572552
8 95.1287792309 80.1244099199
9 88.6103725883 67.7076545114
10 93.4767798513 85.6216458786
11 60.581484691 7.9977476089
12 62.4442416738 80.1691165622
13 45.7615807639 73.7061260554
14 25.0433061938 21.8698387021
15 79.507745703 36.498930367
16 14.7096291313 29.4839801377
17 43.3710043703 20.2056174664
18 57.8792988801 81.3457177639
EOF
